(set-logic QF_S)
(declare-fun var0 () String)
(declare-fun var1 () String)
(declare-fun var2 () String)
(declare-fun var3 () Int)
(declare-fun var4 () Int)
(declare-fun var5 () Int)
(declare-fun var6 () Int)
(declare-fun var7 () String)
(assert (str.contains (str.replace "\\t`\\G]Fq" var0 var1) (str.at var2 var3)))
(assert (< var4 var5))
(assert (< var6 var3))
(assert (< (str.len var7) (str.len var1)))
(check-sat)